p cnf 60 142
21 -22 -18 0
-21 22 0
-21 18 0
22 -9 -12 0
-22 9 0
-22 12 0
-23 24 13 0
23 -24 0
23 -13 0
24 -25 -4 0
-24 25 0
-24 4 0
25 -19 -20 0
-25 19 0
-25 20 0
-26 -27 -14 0
26 27 0
26 14 0
-27 28 4 0
27 -28 0
27 -4 0
-28 16 19 0
28 -16 0
28 -19 0
29 -30 -31 0
-29 30 0
-29 31 0
-30 32 11 0
30 -32 0
30 -11 0
-32 12 18 0
32 -12 0
32 -18 0
31 -5 -20 0
-31 5 0
-31 20 0
33 -4 -34 0
-33 4 0
-33 34 0
34 -12 -3 0
-34 12 0
-34 3 0
-35 11 36 0
35 -11 0
35 -36 0
36 -8 -2 0
-36 8 0
-36 2 0
-37 -15 38 0
37 15 0
37 -38 0
38 -10 -3 0
-38 10 0
-38 3 0
-39 10 40 0
39 -10 0
39 -40 0
-40 6 41 0
40 -6 0
40 -41 0
-41 42 5 0
41 -42 0
41 -5 0
-42 1 14 0
42 -1 0
42 -14 0
-43 44 45 0
43 -44 0
43 -45 0
-44 46 13 0
44 -46 0
44 -13 0
46 -7 -12 0
-46 7 0
-46 12 0
-45 47 19 0
45 -47 0
45 -19 0
47 -4 -11 0
-47 4 0
-47 11 0
-48 16 5 0
48 -16 0
48 -5 0
-49 -13 50 0
49 13 0
49 -50 0
50 -3 -7 0
-50 3 0
-50 7 0
51 -52 -7 0
-51 52 0
-51 7 0
-52 19 11 0
52 -19 0
52 -11 0
-53 54 55 0
53 -54 0
53 -55 0
54 -56 -5 0
-54 56 0
-54 5 0
-56 6 5 0
56 -6 0
56 -5 0
55 -15 -57 0
-55 15 0
-55 57 0
-57 2 58 0
57 -2 0
57 -58 0
58 -19 -1 0
-58 19 0
-58 1 0
-59 -14 -60 0
59 14 0
59 60 0
-60 -17 4 0
60 17 0
60 -4 0
-21 0
-7 0
23 0
26 0
29 0
-33 0
1 0
15 0
16 0
19 0
35 0
-37 0
39 0
43 0
48 0
9 0
12 0
49 0
-51 0
53 0
59 0
-2 0
